Problem:    forno2
Rows:       22
Columns:    5
Non-zeros:  42
Status:     OPTIMAL
Objective:  guadagni = 57.95 (MAXimum)

   No.   Row name   St   Activity     Lower bound   Upper bound    Marginal
------ ------------ -- ------------- ------------- ------------- -------------
     1 limit_production[Pane,Pane]
                    B             -5                          -0 
     2 limit_production[Pane,Biscotti]
                    B             -7                          -0 
     3 limit_production[Pane,Focacce]
                    B             -1                          -0 
     4 limit_production[Pane,Paste]
                    B             -1                          -0 
     5 limit_production[Biscotti,Pane]
                    B             -4                          -0 
     6 limit_production[Biscotti,Biscotti]
                    B             -6                          -0 
     7 limit_production[Biscotti,Focacce]
                    NU             0                          -0          0.45 
     8 limit_production[Biscotti,Paste]
                    NU             0                          -0          1.75 
     9 limit_production[Focacce,Pane]
                    B             -7                          -0 
    10 limit_production[Focacce,Biscotti]
                    B             -9                          -0 
    11 limit_production[Focacce,Focacce]
                    B             -3                          -0 
    12 limit_production[Focacce,Paste]
                    B             -3                          -0 
    13 limit_production[Paste,Pane]
                    B             -7                          -0 
    14 limit_production[Paste,Biscotti]
                    B             -9                          -0 
    15 limit_production[Paste,Focacce]
                    B             -3                          -0 
    16 limit_production[Paste,Paste]
                    B             -3                          -0 
    17 fabbisogni_minimi[Pane]
                    NL             5             5                        -0.5 
    18 fabbisogni_minimi[Biscotti]
                    B              6             2               
    19 fabbisogni_minimi[Focacce]
                    NL             3             3                       -3.85 
    20 fabbisogni_minimi[Paste]
                    B              3             2               
    21 limit_spacetime
                    NU             0                          -0             3 
    22 guadagni     B         -14.05                             

   No. Column name  St   Activity     Lower bound   Upper bound    Marginal
------ ------------ -- ------------- ------------- ------------- -------------
     1 pro[Pane]    B              5                             
     2 pro[Biscotti]
                    B              6                             
     3 pro[Focacce] B              3                             
     4 pro[Paste]   B              3                             
     5 tempoTot     B         6.0875             6               

Karush-Kuhn-Tucker optimality conditions:

KKT.PE: max.abs.err = 0.00e+00 on row 0
        max.rel.err = 0.00e+00 on row 0
        High quality

KKT.PB: max.abs.err = 0.00e+00 on row 0
        max.rel.err = 0.00e+00 on row 0
        High quality

KKT.DE: max.abs.err = 0.00e+00 on column 0
        max.rel.err = 0.00e+00 on column 0
        High quality

KKT.DB: max.abs.err = 0.00e+00 on row 0
        max.rel.err = 0.00e+00 on row 0
        High quality

End of output
